(set-info :smt-lib-version 2.6)
(set-logic UF)
(set-info :source |Benchmarks from the paper: "Extending Sledgehammer with SMT Solvers" by Jasmin Blanchette, Sascha Bohme, and Lawrence C. Paulson, CADE 2011.  Translated to SMT2 by Andrew Reynolds and Morgan Deters.|)
(set-info :category "industrial")
(set-info :status unknown)
(declare-sort S1 0)
(declare-sort S2 0)
(declare-sort S3 0)
(declare-sort S4 0)
(declare-sort S5 0)
(declare-sort S6 0)
(declare-sort S7 0)
(declare-sort S8 0)
(declare-sort S9 0)
(declare-sort S10 0)
(declare-sort S11 0)
(declare-sort S12 0)
(declare-sort S13 0)
(declare-sort S14 0)
(declare-sort S15 0)
(declare-sort S16 0)
(declare-sort S17 0)
(declare-sort S18 0)
(declare-sort S19 0)
(declare-sort S20 0)
(declare-sort S21 0)
(declare-sort S22 0)
(declare-sort S23 0)
(declare-sort S24 0)
(declare-sort S25 0)
(declare-sort S26 0)
(declare-sort S27 0)
(declare-sort S28 0)
(declare-sort S29 0)
(declare-sort S30 0)
(declare-sort S31 0)
(declare-sort S32 0)
(declare-sort S33 0)
(declare-sort S34 0)
(declare-sort S35 0)
(declare-sort S36 0)
(declare-sort S37 0)
(declare-sort S38 0)
(declare-sort S39 0)
(declare-sort S40 0)
(declare-sort S41 0)
(declare-sort S42 0)
(declare-sort S43 0)
(declare-sort S44 0)
(declare-sort S45 0)
(declare-sort S46 0)
(declare-sort S47 0)
(declare-sort S48 0)
(declare-sort S49 0)
(declare-sort S50 0)
(declare-sort S51 0)
(declare-sort S52 0)
(declare-sort S53 0)
(declare-sort S54 0)
(declare-sort S55 0)
(declare-sort S56 0)
(declare-sort S57 0)
(declare-sort S58 0)
(declare-fun f1 () S1)
(declare-fun f2 () S1)
(declare-fun f3 (S3 S2) S4)
(declare-fun f4 () S3)
(declare-fun f5 () S4)
(declare-fun f6 (S5 S2) S6)
(declare-fun f7 () S5)
(declare-fun f8 () S6)
(declare-fun f9 (S8 S7) S9)
(declare-fun f10 () S8)
(declare-fun f11 () S9)
(declare-fun f12 (S10 S8 S3 S5) S1)
(declare-fun f13 () S10)
(declare-fun f14 () S8)
(declare-fun f15 () S3)
(declare-fun f16 (S11 S6) S5)
(declare-fun f17 (S12 S2) S11)
(declare-fun f18 (S13 S5) S12)
(declare-fun f19 () S13)
(declare-fun f20 () S5)
(declare-fun f21 () S2)
(declare-fun f22 (S14 S15) S6)
(declare-fun f23 () S14)
(declare-fun f24 () S15)
(declare-fun f25 (S10 S8 S5 S16 S15) S1)
(declare-fun f26 () S8)
(declare-fun f27 () S16)
(declare-fun f28 (S17 S4) S3)
(declare-fun f29 (S18 S2) S17)
(declare-fun f30 (S19 S3) S18)
(declare-fun f31 () S19)
(declare-fun f32 () S3)
(declare-fun f33 (S20 S21) S4)
(declare-fun f34 () S20)
(declare-fun f35 () S21)
(declare-fun f36 (S22 S16) S16)
(declare-fun f37 (S23 S15) S22)
(declare-fun f38 (S24 S2) S23)
(declare-fun f39 () S24)
(declare-fun f40 (S25 S16) S22)
(declare-fun f41 () S25)
(declare-fun f42 (S26 S2) S22)
(declare-fun f43 () S26)
(declare-fun f44 (S27 S21) S16)
(declare-fun f45 () S27)
(declare-fun f46 () S15)
(declare-fun f47 () S21)
(declare-fun f48 (S28 S9) S8)
(declare-fun f49 (S29 S7) S28)
(declare-fun f50 (S30 S8) S29)
(declare-fun f51 () S30)
(declare-fun f52 (S32 S31) S9)
(declare-fun f53 () S32)
(declare-fun f54 (S33 S34) S1)
(declare-fun f55 (S35 S36) S33)
(declare-fun f56 (S37 S36) S35)
(declare-fun f57 () S37)
(declare-fun f58 (S38 S39) S36)
(declare-fun f59 (S40 S16) S38)
(declare-fun f60 () S40)
(declare-fun f61 (S41 S3) S39)
(declare-fun f62 (S42 S8) S41)
(declare-fun f63 () S42)
(declare-fun f64 () S16)
(declare-fun f65 (S10) S34)
(declare-fun f66 (S43 S21) S6)
(declare-fun f67 (S44 S8) S43)
(declare-fun f68 () S44)
(declare-fun f69 (S10 S8 S21 S15) S1)
(declare-fun f70 (S45 S2) S16)
(declare-fun f71 () S45)
(declare-fun f72 (S46 S39) S1)
(declare-fun f73 (S47 S16) S46)
(declare-fun f74 (S48 S39) S47)
(declare-fun f75 (S49 S16) S48)
(declare-fun f76 (S10) S49)
(declare-fun f77 (S2 S16) S1)
(declare-fun f78 (S50 S39) S3)
(declare-fun f79 () S50)
(declare-fun f80 () S21)
(declare-fun f81 (S10 S8) S1)
(declare-fun f82 (S34 S33) S1)
(declare-fun f83 (S34) S34)
(declare-fun f84 (S8 S8) S1)
(declare-fun f85 (S51 S4) S21)
(declare-fun f86 () S51)
(declare-fun f87 (S16) S1)
(declare-fun f88 (S53 S52) S31)
(declare-fun f89 (S54 S2) S53)
(declare-fun f90 () S54)
(declare-fun f91 (S55 S6) S15)
(declare-fun f92 () S55)
(declare-fun f93 (S56 S9) S31)
(declare-fun f94 () S56)
(declare-fun f95 (S57 S36) S1)
(declare-fun f96 (S58 S31) S1)
(assert (not (= f1 f2)))
(assert (forall ((?v0 S2)) (= (f3 f4 ?v0) f5)))
(assert (forall ((?v0 S2)) (= (f6 f7 ?v0) f8)))
(assert (forall ((?v0 S7)) (= (f9 f10 ?v0) f11)))
(assert (not (= (f12 f13 f14 f15 (f16 (f17 (f18 f19 f20) f21) (f22 f23 f24))) f1)))
(assert (forall ((?v0 S5) (?v1 S15)) (=> (= (f25 f13 f26 ?v0 f27 ?v1) f1) (=> (= (f12 f13 f26 (f28 (f29 (f30 f31 f32) f21) (f33 f34 f35)) ?v0) f1) (= (f12 f13 f14 f15 ?v0) f1)))))
(assert (= (f12 f13 f26 f32 f20) f1))
(assert (= (f25 f13 f26 f20 (f36 (f37 (f38 f39 f21) f24) (f36 (f40 f41 (f36 (f42 f43 f21) (f44 f45 f35))) f27)) f46) f1))
(assert (= (f12 f13 f26 f32 f20) f1))
(assert (= (f3 f15 f21) (f33 f34 f47)))
(assert (= (f12 f13 f14 f32 f20) f1))
(assert (forall ((?v0 S5) (?v1 S15)) (=> (= (f25 f13 f26 ?v0 f27 ?v1) f1) (=> (= (f12 f13 f26 (f28 (f29 (f30 f31 f32) f21) (f33 f34 f35)) ?v0) f1) (= (f12 f13 f14 f15 ?v0) f1)))))
(assert (= (f25 f13 f26 f20 (f36 (f37 (f38 f39 f21) f24) (f36 (f40 f41 (f36 (f42 f43 f21) (f44 f45 f35))) f27)) f46) f1))
(assert (forall ((?v0 S5) (?v1 S2)) (= (f16 (f17 (f18 f19 ?v0) ?v1) (f6 ?v0 ?v1)) ?v0)))
(assert (forall ((?v0 S3) (?v1 S2)) (= (f28 (f29 (f30 f31 ?v0) ?v1) (f3 ?v0 ?v1)) ?v0)))
(assert (forall ((?v0 S8) (?v1 S7)) (= (f48 (f49 (f50 f51 ?v0) ?v1) (f9 ?v0 ?v1)) ?v0)))
(assert (forall ((?v0 S5) (?v1 S2) (?v2 S15) (?v3 S2) (?v4 S15)) (let ((?v_1 (f22 f23 ?v4)) (?v_0 (= ?v3 ?v1))) (= (= (f6 (f16 (f17 (f18 f19 ?v0) ?v1) (f22 f23 ?v2)) ?v3) ?v_1) (or (and ?v_0 (= ?v2 ?v4)) (and (not ?v_0) (= (f6 ?v0 ?v3) ?v_1)))))))
(assert (forall ((?v0 S3) (?v1 S2) (?v2 S21) (?v3 S2) (?v4 S21)) (let ((?v_1 (f33 f34 ?v4)) (?v_0 (= ?v3 ?v1))) (= (= (f3 (f28 (f29 (f30 f31 ?v0) ?v1) (f33 f34 ?v2)) ?v3) ?v_1) (or (and ?v_0 (= ?v2 ?v4)) (and (not ?v_0) (= (f3 ?v0 ?v3) ?v_1)))))))
(assert (forall ((?v0 S8) (?v1 S7) (?v2 S31) (?v3 S7) (?v4 S31)) (let ((?v_1 (f52 f53 ?v4)) (?v_0 (= ?v3 ?v1))) (= (= (f9 (f48 (f49 (f50 f51 ?v0) ?v1) (f52 f53 ?v2)) ?v3) ?v_1) (or (and ?v_0 (= ?v2 ?v4)) (and (not ?v_0) (= (f9 ?v0 ?v3) ?v_1)))))))
(assert (forall ((?v0 S5) (?v1 S2) (?v2 S15)) (let ((?v_0 (f22 f23 ?v2))) (=> (= (f6 ?v0 ?v1) ?v_0) (= (f16 (f17 (f18 f19 ?v0) ?v1) ?v_0) ?v0)))))
(assert (forall ((?v0 S3) (?v1 S2) (?v2 S21)) (let ((?v_0 (f33 f34 ?v2))) (=> (= (f3 ?v0 ?v1) ?v_0) (= (f28 (f29 (f30 f31 ?v0) ?v1) ?v_0) ?v0)))))
(assert (forall ((?v0 S8) (?v1 S7) (?v2 S31)) (let ((?v_0 (f52 f53 ?v2))) (=> (= (f9 ?v0 ?v1) ?v_0) (= (f48 (f49 (f50 f51 ?v0) ?v1) ?v_0) ?v0)))))
(assert (forall ((?v0 S5) (?v1 S2) (?v2 S15) (?v3 S5) (?v4 S15)) (=> (= (f16 (f17 (f18 f19 ?v0) ?v1) (f22 f23 ?v2)) (f16 (f17 (f18 f19 ?v3) ?v1) (f22 f23 ?v4))) (= ?v2 ?v4))))
(assert (forall ((?v0 S3) (?v1 S2) (?v2 S21) (?v3 S3) (?v4 S21)) (=> (= (f28 (f29 (f30 f31 ?v0) ?v1) (f33 f34 ?v2)) (f28 (f29 (f30 f31 ?v3) ?v1) (f33 f34 ?v4))) (= ?v2 ?v4))))
(assert (forall ((?v0 S8) (?v1 S7) (?v2 S31) (?v3 S8) (?v4 S31)) (=> (= (f48 (f49 (f50 f51 ?v0) ?v1) (f52 f53 ?v2)) (f48 (f49 (f50 f51 ?v3) ?v1) (f52 f53 ?v4))) (= ?v2 ?v4))))
(assert (= (f12 f13 f26 f32 f20) f1))
(assert (forall ((?v0 S5) (?v1 S2) (?v2 S6)) (= (= (f16 (f17 (f18 f19 ?v0) ?v1) ?v2) ?v0) (= (f6 ?v0 ?v1) ?v2))))
(assert (forall ((?v0 S3) (?v1 S2) (?v2 S4)) (= (= (f28 (f29 (f30 f31 ?v0) ?v1) ?v2) ?v0) (= (f3 ?v0 ?v1) ?v2))))
(assert (forall ((?v0 S8) (?v1 S7) (?v2 S9)) (= (= (f48 (f49 (f50 f51 ?v0) ?v1) ?v2) ?v0) (= (f9 ?v0 ?v1) ?v2))))
(assert (forall ((?v0 S5) (?v1 S2) (?v2 S6) (?v3 S6)) (let ((?v_0 (f17 (f18 f19 ?v0) ?v1))) (= (f16 (f17 (f18 f19 (f16 ?v_0 ?v2)) ?v1) ?v3) (f16 ?v_0 ?v3)))))
(assert (forall ((?v0 S3) (?v1 S2) (?v2 S4) (?v3 S4)) (let ((?v_0 (f29 (f30 f31 ?v0) ?v1))) (= (f28 (f29 (f30 f31 (f28 ?v_0 ?v2)) ?v1) ?v3) (f28 ?v_0 ?v3)))))
(assert (forall ((?v0 S8) (?v1 S7) (?v2 S9) (?v3 S9)) (let ((?v_0 (f49 (f50 f51 ?v0) ?v1))) (= (f48 (f49 (f50 f51 (f48 ?v_0 ?v2)) ?v1) ?v3) (f48 ?v_0 ?v3)))))
(assert (forall ((?v0 S5) (?v1 S2) (?v2 S6)) (= (f6 (f16 (f17 (f18 f19 ?v0) ?v1) ?v2) ?v1) ?v2)))
(assert (forall ((?v0 S3) (?v1 S2) (?v2 S4)) (= (f3 (f28 (f29 (f30 f31 ?v0) ?v1) ?v2) ?v1) ?v2)))
(assert (forall ((?v0 S8) (?v1 S7) (?v2 S9)) (= (f9 (f48 (f49 (f50 f51 ?v0) ?v1) ?v2) ?v1) ?v2)))
(assert (forall ((?v0 S5) (?v1 S2) (?v2 S6) (?v3 S2)) (= (f6 (f16 (f17 (f18 f19 ?v0) ?v1) ?v2) ?v3) (ite (= ?v3 ?v1) ?v2 (f6 ?v0 ?v3)))))
(assert (forall ((?v0 S3) (?v1 S2) (?v2 S4) (?v3 S2)) (= (f3 (f28 (f29 (f30 f31 ?v0) ?v1) ?v2) ?v3) (ite (= ?v3 ?v1) ?v2 (f3 ?v0 ?v3)))))
(assert (forall ((?v0 S8) (?v1 S7) (?v2 S9) (?v3 S7)) (= (f9 (f48 (f49 (f50 f51 ?v0) ?v1) ?v2) ?v3) (ite (= ?v3 ?v1) ?v2 (f9 ?v0 ?v3)))))
(assert (forall ((?v0 S2) (?v1 S2) (?v2 S5) (?v3 S6) (?v4 S6)) (let ((?v_0 (f18 f19 ?v2))) (=> (not (= ?v0 ?v1)) (= (f16 (f17 (f18 f19 (f16 (f17 ?v_0 ?v0) ?v3)) ?v1) ?v4) (f16 (f17 (f18 f19 (f16 (f17 ?v_0 ?v1) ?v4)) ?v0) ?v3))))))
(assert (forall ((?v0 S2) (?v1 S2) (?v2 S3) (?v3 S4) (?v4 S4)) (let ((?v_0 (f30 f31 ?v2))) (=> (not (= ?v0 ?v1)) (= (f28 (f29 (f30 f31 (f28 (f29 ?v_0 ?v0) ?v3)) ?v1) ?v4) (f28 (f29 (f30 f31 (f28 (f29 ?v_0 ?v1) ?v4)) ?v0) ?v3))))))
(assert (forall ((?v0 S7) (?v1 S7) (?v2 S8) (?v3 S9) (?v4 S9)) (let ((?v_0 (f50 f51 ?v2))) (=> (not (= ?v0 ?v1)) (= (f48 (f49 (f50 f51 (f48 (f49 ?v_0 ?v0) ?v3)) ?v1) ?v4) (f48 (f49 (f50 f51 (f48 (f49 ?v_0 ?v1) ?v4)) ?v0) ?v3))))))
(assert (forall ((?v0 S2) (?v1 S2) (?v2 S5) (?v3 S6)) (=> (not (= ?v0 ?v1)) (= (f6 (f16 (f17 (f18 f19 ?v2) ?v1) ?v3) ?v0) (f6 ?v2 ?v0)))))
(assert (forall ((?v0 S2) (?v1 S2) (?v2 S3) (?v3 S4)) (=> (not (= ?v0 ?v1)) (= (f3 (f28 (f29 (f30 f31 ?v2) ?v1) ?v3) ?v0) (f3 ?v2 ?v0)))))
(assert (forall ((?v0 S7) (?v1 S7) (?v2 S8) (?v3 S9)) (=> (not (= ?v0 ?v1)) (= (f9 (f48 (f49 (f50 f51 ?v2) ?v1) ?v3) ?v0) (f9 ?v2 ?v0)))))
(assert (= (f25 f13 f26 f20 (f36 (f37 (f38 f39 f21) f24) (f36 (f40 f41 (f36 (f42 f43 f21) (f44 f45 f35))) f27)) f46) f1))
(assert (forall ((?v0 S5) (?v1 S15)) (=> (= (f25 f13 f26 ?v0 f27 ?v1) f1) (=> (= (f12 f13 f26 (f28 (f29 (f30 f31 f32) f21) (f33 f34 f35)) ?v0) f1) (= (f12 f13 f14 f15 ?v0) f1)))))
(assert (forall ((?v0 S5) (?v1 S2) (?v2 S6) (?v3 S2)) (= (f6 (f16 (f17 (f18 f19 ?v0) ?v1) ?v2) ?v3) (ite (= ?v3 ?v1) ?v2 (f6 ?v0 ?v3)))))
(assert (forall ((?v0 S3) (?v1 S2) (?v2 S4) (?v3 S2)) (= (f3 (f28 (f29 (f30 f31 ?v0) ?v1) ?v2) ?v3) (ite (= ?v3 ?v1) ?v2 (f3 ?v0 ?v3)))))
(assert (forall ((?v0 S8) (?v1 S7) (?v2 S9) (?v3 S7)) (= (f9 (f48 (f49 (f50 f51 ?v0) ?v1) ?v2) ?v3) (ite (= ?v3 ?v1) ?v2 (f9 ?v0 ?v3)))))
(assert (forall ((?v0 S5) (?v1 S2) (?v2 S6)) (=> (= (f6 ?v0 ?v1) ?v2) (= (f16 (f17 (f18 f19 ?v0) ?v1) ?v2) ?v0))))
(assert (forall ((?v0 S3) (?v1 S2) (?v2 S4)) (=> (= (f3 ?v0 ?v1) ?v2) (= (f28 (f29 (f30 f31 ?v0) ?v1) ?v2) ?v0))))
(assert (forall ((?v0 S8) (?v1 S7) (?v2 S9)) (=> (= (f9 ?v0 ?v1) ?v2) (= (f48 (f49 (f50 f51 ?v0) ?v1) ?v2) ?v0))))
(assert (forall ((?v0 S10) (?v1 S8) (?v2 S5) (?v3 S2) (?v4 S15) (?v5 S16) (?v6 S15)) (=> (= (f25 ?v0 ?v1 (f16 (f17 (f18 f19 ?v2) ?v3) (f22 f23 ?v4)) ?v5 ?v6) f1) (= (f25 ?v0 ?v1 ?v2 (f36 (f37 (f38 f39 ?v3) ?v4) ?v5) ?v6) f1))))
(assert (forall ((?v0 S10) (?v1 S8) (?v2 S5) (?v3 S16) (?v4 S15) (?v5 S16) (?v6 S15)) (=> (= (f25 ?v0 ?v1 ?v2 ?v3 ?v4) f1) (=> (= (f25 ?v0 ?v1 ?v2 ?v5 ?v6) f1) (= (f25 ?v0 ?v1 ?v2 (f36 (f40 f41 ?v3) ?v5) ?v6) f1)))))
(assert (forall ((?v0 S16) (?v1 S16) (?v2 S2) (?v3 S15) (?v4 S16)) (not (= (f36 (f40 f41 ?v0) ?v1) (f36 (f37 (f38 f39 ?v2) ?v3) ?v4)))))
(assert (forall ((?v0 S2) (?v1 S16) (?v2 S2) (?v3 S15) (?v4 S16)) (not (= (f36 (f42 f43 ?v0) ?v1) (f36 (f37 (f38 f39 ?v2) ?v3) ?v4)))))
(assert (forall ((?v0 S2) (?v1 S15) (?v2 S16) (?v3 S16) (?v4 S16)) (not (= (f36 (f37 (f38 f39 ?v0) ?v1) ?v2) (f36 (f40 f41 ?v3) ?v4)))))
(assert (forall ((?v0 S2) (?v1 S15) (?v2 S16) (?v3 S2) (?v4 S16)) (not (= (f36 (f37 (f38 f39 ?v0) ?v1) ?v2) (f36 (f42 f43 ?v3) ?v4)))))
(assert (forall ((?v0 S16) (?v1 S16) (?v2 S2) (?v3 S16)) (not (= (f36 (f40 f41 ?v0) ?v1) (f36 (f42 f43 ?v2) ?v3)))))
(assert (forall ((?v0 S2) (?v1 S16) (?v2 S16) (?v3 S16)) (not (= (f36 (f42 f43 ?v0) ?v1) (f36 (f40 f41 ?v2) ?v3)))))
(assert (forall ((?v0 S21) (?v1 S2) (?v2 S15) (?v3 S16)) (not (= (f44 f45 ?v0) (f36 (f37 (f38 f39 ?v1) ?v2) ?v3)))))
(assert (forall ((?v0 S2) (?v1 S15) (?v2 S16) (?v3 S21)) (not (= (f36 (f37 (f38 f39 ?v0) ?v1) ?v2) (f44 f45 ?v3)))))
(assert (forall ((?v0 S21) (?v1 S21)) (= (= (f44 f45 ?v0) (f44 f45 ?v1)) (= ?v0 ?v1))))
(assert (forall ((?v0 S2) (?v1 S16) (?v2 S2) (?v3 S16)) (= (= (f36 (f42 f43 ?v0) ?v1) (f36 (f42 f43 ?v2) ?v3)) (and (= ?v0 ?v2) (= ?v1 ?v3)))))
(assert (forall ((?v0 S16) (?v1 S16) (?v2 S16) (?v3 S16)) (= (= (f36 (f40 f41 ?v0) ?v1) (f36 (f40 f41 ?v2) ?v3)) (and (= ?v0 ?v2) (= ?v1 ?v3)))))
(assert (forall ((?v0 S2) (?v1 S15) (?v2 S16) (?v3 S2) (?v4 S15) (?v5 S16)) (= (= (f36 (f37 (f38 f39 ?v0) ?v1) ?v2) (f36 (f37 (f38 f39 ?v3) ?v4) ?v5)) (and (= ?v0 ?v3) (and (= ?v1 ?v4) (= ?v2 ?v5))))))
(assert (forall ((?v0 S2) (?v1 S16) (?v2 S21)) (not (= (f36 (f42 f43 ?v0) ?v1) (f44 f45 ?v2)))))
(assert (forall ((?v0 S16) (?v1 S16) (?v2 S21)) (not (= (f36 (f40 f41 ?v0) ?v1) (f44 f45 ?v2)))))
(assert (forall ((?v0 S21) (?v1 S2) (?v2 S16)) (not (= (f44 f45 ?v0) (f36 (f42 f43 ?v1) ?v2)))))
(assert (forall ((?v0 S21) (?v1 S16) (?v2 S16)) (not (= (f44 f45 ?v0) (f36 (f40 f41 ?v1) ?v2)))))
(assert (= (f54 (f55 (f56 f57 (f58 (f59 f60 f27) (f61 (f62 f63 f26) (f28 (f29 (f30 f31 f32) f21) (f33 f34 f35))))) (f58 (f59 f60 f64) (f61 (f62 f63 f14) f15))) (f65 f13)) f1))
(assert (forall ((?v0 S8) (?v1 S21) (?v2 S15) (?v3 S10) (?v4 S5)) (=> (= (f66 (f67 f68 ?v0) ?v1) (f22 f23 ?v2)) (= (f25 ?v3 ?v0 ?v4 (f44 f45 ?v1) ?v2) f1))))
(assert (forall ((?v0 S10) (?v1 S8) (?v2 S3) (?v3 S5) (?v4 S21) (?v5 S15) (?v6 S2)) (=> (= (f12 ?v0 ?v1 ?v2 ?v3) f1) (=> (= (f69 ?v0 ?v1 ?v4 ?v5) f1) (= (f12 ?v0 ?v1 (f28 (f29 (f30 f31 ?v2) ?v6) (f33 f34 ?v4)) (f16 (f17 (f18 f19 ?v3) ?v6) (f22 f23 ?v5))) f1)))))
(assert (forall ((?v0 S10) (?v1 S8) (?v2 S3) (?v3 S5) (?v4 S21) (?v5 S15) (?v6 S2)) (=> (= (f12 ?v0 ?v1 ?v2 ?v3) f1) (=> (= (f69 ?v0 ?v1 ?v4 ?v5) f1) (=> (= (f6 ?v3 ?v6) (f22 f23 ?v5)) (= (f12 ?v0 ?v1 (f28 (f29 (f30 f31 ?v2) ?v6) (f33 f34 ?v4)) ?v3) f1))))))
(assert (forall ((?v0 S15) (?v1 S15)) (= (= (f22 f23 ?v0) (f22 f23 ?v1)) (= ?v0 ?v1))))
(assert (forall ((?v0 S21) (?v1 S21)) (= (= (f33 f34 ?v0) (f33 f34 ?v1)) (= ?v0 ?v1))))
(assert (forall ((?v0 S31) (?v1 S31)) (= (= (f52 f53 ?v0) (f52 f53 ?v1)) (= ?v0 ?v1))))
(assert (forall ((?v0 S5) (?v1 S2) (?v2 S15) (?v3 S10) (?v4 S8)) (=> (= (f6 ?v0 ?v1) (f22 f23 ?v2)) (= (f25 ?v3 ?v4 ?v0 (f70 f71 ?v1) ?v2) f1))))
(assert (forall ((?v0 S10) (?v1 S2) (?v2 S15) (?v3 S21) (?v4 S21) (?v5 S39)) (let ((?v_0 (f44 f45 ?v4))) (= (f72 (f73 (f74 (f75 (f76 ?v0) (f36 (f37 (f38 f39 ?v1) ?v2) (f36 (f40 f41 (f36 (f42 f43 ?v1) (f44 f45 ?v3))) ?v_0))) ?v5) ?v_0) ?v5) f1))))
(assert (forall ((?v0 S2) (?v1 S16)) (= (= (f77 ?v0 ?v1) f1) (exists ((?v2 S21) (?v3 S16)) (= ?v1 (f36 (f40 f41 (f36 (f42 f43 ?v0) (f44 f45 ?v2))) ?v3))))))
(assert (forall ((?v0 S10) (?v1 S16) (?v2 S8) (?v3 S3) (?v4 S2) (?v5 S21) (?v6 S16) (?v7 S8) (?v8 S3) (?v9 S21) (?v10 S15)) (let ((?v_0 (f76 ?v0)) (?v_1 (f62 f63 ?v2)) (?v_4 (f62 f63 ?v7)) (?v_2 (f37 (f38 f39 ?v4) ?v10)) (?v_3 (f42 f43 ?v4))) (=> (= (f72 (f73 (f74 (f75 ?v_0 ?v1) (f61 ?v_1 (f28 (f29 (f30 f31 ?v3) ?v4) (f33 f34 ?v5)))) ?v6) (f61 ?v_4 ?v8)) f1) (=> (= (f3 ?v8 ?v4) (f33 f34 ?v9)) (= (f72 (f73 (f74 (f75 ?v_0 (f36 ?v_2 (f36 (f40 f41 (f36 ?v_3 (f44 f45 ?v5))) ?v1))) (f61 ?v_1 ?v3)) (f36 ?v_2 (f36 (f40 f41 (f36 ?v_3 (f44 f45 ?v9))) ?v6))) (f61 ?v_4 (f28 (f29 (f30 f31 ?v8) ?v4) (f3 ?v3 ?v4)))) f1))))))
(assert (forall ((?v0 S21) (?v1 S16) (?v2 S39) (?v3 S10)) (= (f54 (f55 (f56 f57 (f58 (f59 f60 (f36 (f40 f41 (f44 f45 ?v0)) ?v1)) ?v2)) (f58 (f59 f60 ?v1) ?v2)) (f65 ?v3)) f1)))
(assert (forall ((?v0 S2) (?v1 S15) (?v2 S21) (?v3 S39) (?v4 S10)) (let ((?v_0 (f44 f45 ?v2))) (= (f54 (f55 (f56 f57 (f58 (f59 f60 (f36 (f37 (f38 f39 ?v0) ?v1) ?v_0)) ?v3)) (f58 (f59 f60 ?v_0) ?v3)) (f65 ?v4)) f1))))
(assert (forall ((?v0 S16) (?v1 S39) (?v2 S16) (?v3 S39) (?v4 S10) (?v5 S16)) (let ((?v_0 (f65 ?v4))) (=> (= (f54 (f55 (f56 f57 (f58 (f59 f60 ?v0) ?v1)) (f58 (f59 f60 ?v2) ?v3)) ?v_0) f1) (= (f54 (f55 (f56 f57 (f58 (f59 f60 (f36 (f40 f41 ?v0) ?v5)) ?v1)) (f58 (f59 f60 (f36 (f40 f41 ?v2) ?v5)) ?v3)) ?v_0) f1)))))
(assert (forall ((?v0 S16) (?v1 S39) (?v2 S16) (?v3 S39) (?v4 S10) (?v5 S2)) (let ((?v_1 (f65 ?v4)) (?v_0 (f42 f43 ?v5))) (=> (= (f54 (f55 (f56 f57 (f58 (f59 f60 ?v0) ?v1)) (f58 (f59 f60 ?v2) ?v3)) ?v_1) f1) (= (f54 (f55 (f56 f57 (f58 (f59 f60 (f36 ?v_0 ?v0)) ?v1)) (f58 (f59 f60 (f36 ?v_0 ?v2)) ?v3)) ?v_1) f1)))))
(assert (forall ((?v0 S2) (?v1 S2)) (= (= (f70 f71 ?v0) (f70 f71 ?v1)) (= ?v0 ?v1))))
(assert (forall ((?v0 S8) (?v1 S21) (?v2 S15) (?v3 S10)) (=> (= (f66 (f67 f68 ?v0) ?v1) (f22 f23 ?v2)) (= (f69 ?v3 ?v0 ?v1 ?v2) f1))))
(assert (forall ((?v0 S10) (?v1 S16) (?v2 S39) (?v3 S16) (?v4 S39)) (= (= (f72 (f73 (f74 (f75 (f76 ?v0) ?v1) ?v2) ?v3) ?v4) f1) (= (f54 (f55 (f56 f57 (f58 (f59 f60 ?v1) ?v2)) (f58 (f59 f60 ?v3) ?v4)) (f65 ?v0)) f1))))
(assert (forall ((?v0 S10) (?v1 S16) (?v2 S39) (?v3 S16) (?v4 S39) (?v5 S16)) (let ((?v_0 (f76 ?v0))) (=> (= (f72 (f73 (f74 (f75 ?v_0 ?v1) ?v2) ?v3) ?v4) f1) (= (f72 (f73 (f74 (f75 ?v_0 (f36 (f40 f41 ?v1) ?v5)) ?v2) (f36 (f40 f41 ?v3) ?v5)) ?v4) f1)))))
(assert (forall ((?v0 S10) (?v1 S16) (?v2 S39) (?v3 S16) (?v4 S39) (?v5 S2)) (let ((?v_0 (f76 ?v0)) (?v_1 (f42 f43 ?v5))) (=> (= (f72 (f73 (f74 (f75 ?v_0 ?v1) ?v2) ?v3) ?v4) f1) (= (f72 (f73 (f74 (f75 ?v_0 (f36 ?v_1 ?v1)) ?v2) (f36 ?v_1 ?v3)) ?v4) f1)))))
(assert (forall ((?v0 S2) (?v1 S15) (?v2 S21) (?v3 S21) (?v4 S39) (?v5 S10)) (let ((?v_0 (f44 f45 ?v3))) (= (f54 (f55 (f56 f57 (f58 (f59 f60 (f36 (f37 (f38 f39 ?v0) ?v1) (f36 (f40 f41 (f36 (f42 f43 ?v0) (f44 f45 ?v2))) ?v_0))) ?v4)) (f58 (f59 f60 ?v_0) ?v4)) (f65 ?v5)) f1))))
(assert (forall ((?v0 S16) (?v1 S8) (?v2 S3) (?v3 S2) (?v4 S21) (?v5 S16) (?v6 S8) (?v7 S3) (?v8 S10) (?v9 S21) (?v10 S15)) (let ((?v_0 (f62 f63 ?v1)) (?v_3 (f62 f63 ?v6)) (?v_4 (f65 ?v8)) (?v_1 (f37 (f38 f39 ?v3) ?v10)) (?v_2 (f42 f43 ?v3))) (=> (= (f54 (f55 (f56 f57 (f58 (f59 f60 ?v0) (f61 ?v_0 (f28 (f29 (f30 f31 ?v2) ?v3) (f33 f34 ?v4))))) (f58 (f59 f60 ?v5) (f61 ?v_3 ?v7))) ?v_4) f1) (=> (= (f3 ?v7 ?v3) (f33 f34 ?v9)) (= (f54 (f55 (f56 f57 (f58 (f59 f60 (f36 ?v_1 (f36 (f40 f41 (f36 ?v_2 (f44 f45 ?v4))) ?v0))) (f61 ?v_0 ?v2))) (f58 (f59 f60 (f36 ?v_1 (f36 (f40 f41 (f36 ?v_2 (f44 f45 ?v9))) ?v5))) (f61 ?v_3 (f28 (f29 (f30 f31 ?v7) ?v3) (f3 ?v2 ?v3))))) ?v_4) f1))))))
(assert (forall ((?v0 S10) (?v1 S21) (?v2 S16) (?v3 S39)) (= (f72 (f73 (f74 (f75 (f76 ?v0) (f36 (f40 f41 (f44 f45 ?v1)) ?v2)) ?v3) ?v2) ?v3) f1)))
(assert (forall ((?v0 S21) (?v1 S2)) (not (= (f44 f45 ?v0) (f70 f71 ?v1)))))
(assert (forall ((?v0 S2) (?v1 S21)) (not (= (f70 f71 ?v0) (f44 f45 ?v1)))))
(assert (forall ((?v0 S10) (?v1 S2) (?v2 S15) (?v3 S21) (?v4 S39)) (let ((?v_0 (f44 f45 ?v3))) (= (f72 (f73 (f74 (f75 (f76 ?v0) (f36 (f37 (f38 f39 ?v1) ?v2) ?v_0)) ?v4) ?v_0) ?v4) f1))))
(assert (forall ((?v0 S2) (?v1 S16) (?v2 S16)) (not (= (f70 f71 ?v0) (f36 (f40 f41 ?v1) ?v2)))))
(assert (forall ((?v0 S2) (?v1 S2) (?v2 S16)) (not (= (f70 f71 ?v0) (f36 (f42 f43 ?v1) ?v2)))))
(assert (forall ((?v0 S16) (?v1 S16) (?v2 S2)) (not (= (f36 (f40 f41 ?v0) ?v1) (f70 f71 ?v2)))))
(assert (forall ((?v0 S2) (?v1 S16) (?v2 S2)) (not (= (f36 (f42 f43 ?v0) ?v1) (f70 f71 ?v2)))))
(assert (forall ((?v0 S2) (?v1 S2) (?v2 S15) (?v3 S16)) (not (= (f70 f71 ?v0) (f36 (f37 (f38 f39 ?v1) ?v2) ?v3)))))
(assert (forall ((?v0 S2) (?v1 S15) (?v2 S16) (?v3 S2)) (not (= (f36 (f37 (f38 f39 ?v0) ?v1) ?v2) (f70 f71 ?v3)))))
(assert (forall ((?v0 S39) (?v1 S2) (?v2 S21) (?v3 S10)) (=> (= (f3 (f78 f79 ?v0) ?v1) (f33 f34 ?v2)) (= (f54 (f55 (f56 f57 (f58 (f59 f60 (f70 f71 ?v1)) ?v0)) (f58 (f59 f60 (f44 f45 ?v2)) ?v0)) (f65 ?v3)) f1))))
(assert (forall ((?v0 S10) (?v1 S8) (?v2 S3) (?v3 S5)) (= (= (f12 ?v0 ?v1 ?v2 ?v3) f1) (forall ((?v4 S2) (?v5 S21)) (=> (= (f3 ?v2 ?v4) (f33 f34 ?v5)) (exists ((?v6 S15)) (and (= (f6 ?v3 ?v4) (f22 f23 ?v6)) (= (f69 ?v0 ?v1 ?v5 ?v6) f1))))))))
(assert (forall ((?v0 S39) (?v1 S2) (?v2 S21) (?v3 S10)) (=> (= (f3 (f78 f79 ?v0) ?v1) (f33 f34 ?v2)) (= (f72 (f73 (f74 (f75 (f76 ?v3) (f70 f71 ?v1)) ?v0) (f44 f45 ?v2)) ?v0) f1))))
(assert (forall ((?v0 S16) (?v1 S8) (?v2 S3) (?v3 S2) (?v4 S16) (?v5 S8) (?v6 S3) (?v7 S10) (?v8 S21) (?v9 S15)) (let ((?v_0 (f62 f63 ?v1)) (?v_2 (f62 f63 ?v5)) (?v_3 (f65 ?v7)) (?v_1 (f37 (f38 f39 ?v3) ?v9))) (=> (= (f54 (f55 (f56 f57 (f58 (f59 f60 ?v0) (f61 ?v_0 (f28 (f29 (f30 f31 ?v2) ?v3) f5)))) (f58 (f59 f60 ?v4) (f61 ?v_2 ?v6))) ?v_3) f1) (=> (= (f3 ?v6 ?v3) (f33 f34 ?v8)) (=> (not (= (f77 ?v3 ?v0) f1)) (= (f54 (f55 (f56 f57 (f58 (f59 f60 (f36 ?v_1 ?v0)) (f61 ?v_0 ?v2))) (f58 (f59 f60 (f36 ?v_1 (f36 (f40 f41 (f36 (f42 f43 ?v3) (f44 f45 ?v8))) ?v4))) (f61 ?v_2 (f28 (f29 (f30 f31 ?v6) ?v3) (f3 ?v2 ?v3))))) ?v_3) f1)))))))
(assert (forall ((?v0 S2) (?v1 S21) (?v2 S8) (?v3 S3) (?v4 S10)) (let ((?v_0 (f62 f63 ?v2))) (= (f54 (f55 (f56 f57 (f58 (f59 f60 (f36 (f42 f43 ?v0) (f44 f45 ?v1))) (f61 ?v_0 ?v3))) (f58 (f59 f60 (f44 f45 f80)) (f61 ?v_0 (f28 (f29 (f30 f31 ?v3) ?v0) (f33 f34 ?v1))))) (f65 ?v4)) f1))))
(assert (forall ((?v0 S10) (?v1 S16) (?v2 S8) (?v3 S3) (?v4 S2) (?v5 S16) (?v6 S8) (?v7 S3) (?v8 S21) (?v9 S15)) (let ((?v_0 (f76 ?v0)) (?v_1 (f62 f63 ?v2)) (?v_3 (f62 f63 ?v6)) (?v_2 (f37 (f38 f39 ?v4) ?v9))) (=> (= (f72 (f73 (f74 (f75 ?v_0 ?v1) (f61 ?v_1 (f28 (f29 (f30 f31 ?v3) ?v4) f5))) ?v5) (f61 ?v_3 ?v7)) f1) (=> (= (f3 ?v7 ?v4) (f33 f34 ?v8)) (=> (not (= (f77 ?v4 ?v1) f1)) (= (f72 (f73 (f74 (f75 ?v_0 (f36 ?v_2 ?v1)) (f61 ?v_1 ?v3)) (f36 ?v_2 (f36 (f40 f41 (f36 (f42 f43 ?v4) (f44 f45 ?v8))) ?v5))) (f61 ?v_3 (f28 (f29 (f30 f31 ?v7) ?v4) (f3 ?v3 ?v4)))) f1)))))))
(assert (forall ((?v0 S16) (?v1 S8) (?v2 S3) (?v3 S16) (?v4 S8) (?v5 S3) (?v6 S10) (?v7 S5) (?v8 S15)) (=> (= (f54 (f55 (f56 f57 (f58 (f59 f60 ?v0) (f61 (f62 f63 ?v1) ?v2))) (f58 (f59 f60 ?v3) (f61 (f62 f63 ?v4) ?v5))) (f65 ?v6)) f1) (=> (= (f25 ?v6 ?v1 ?v7 ?v0 ?v8) f1) (=> (= (f81 ?v6 ?v1) f1) (= (f81 ?v6 ?v4) f1))))))
(assert (forall ((?v0 S33) (?v1 S34)) (= (= (f54 ?v0 ?v1) f1) (= (f82 ?v1 ?v0) f1))))
(assert (forall ((?v0 S10) (?v1 S2) (?v2 S21) (?v3 S8) (?v4 S3)) (let ((?v_0 (f62 f63 ?v3))) (= (f72 (f73 (f74 (f75 (f76 ?v0) (f36 (f42 f43 ?v1) (f44 f45 ?v2))) (f61 ?v_0 ?v4)) (f44 f45 f80)) (f61 ?v_0 (f28 (f29 (f30 f31 ?v4) ?v1) (f33 f34 ?v2)))) f1))))
(assert (forall ((?v0 S10) (?v1 S8) (?v2 S5)) (= (f12 ?v0 ?v1 f4 ?v2) f1)))
(assert (forall ((?v0 S15)) (not (= f8 (f22 f23 ?v0)))))
(assert (forall ((?v0 S21)) (not (= f5 (f33 f34 ?v0)))))
(assert (forall ((?v0 S31)) (not (= f11 (f52 f53 ?v0)))))
(assert (forall ((?v0 S15)) (not (= (f22 f23 ?v0) f8))))
(assert (forall ((?v0 S21)) (not (= (f33 f34 ?v0) f5))))
(assert (forall ((?v0 S31)) (not (= (f52 f53 ?v0) f11))))
(assert (forall ((?v0 S6)) (= (forall ((?v1 S15)) (not (= ?v0 (f22 f23 ?v1)))) (= ?v0 f8))))
(assert (forall ((?v0 S4)) (= (forall ((?v1 S21)) (not (= ?v0 (f33 f34 ?v1)))) (= ?v0 f5))))
(assert (forall ((?v0 S9)) (= (forall ((?v1 S31)) (not (= ?v0 (f52 f53 ?v1)))) (= ?v0 f11))))
(assert (forall ((?v0 S6)) (= (not (= ?v0 f8)) (exists ((?v1 S15)) (= ?v0 (f22 f23 ?v1))))))
(assert (forall ((?v0 S4)) (= (not (= ?v0 f5)) (exists ((?v1 S21)) (= ?v0 (f33 f34 ?v1))))))
(assert (forall ((?v0 S9)) (= (not (= ?v0 f11)) (exists ((?v1 S31)) (= ?v0 (f52 f53 ?v1))))))
(assert (forall ((?v0 S2) (?v1 S2)) (= (f6 (f16 (f17 (f18 f19 f7) ?v0) f8) ?v1) f8)))
(assert (forall ((?v0 S2) (?v1 S2)) (= (f3 (f28 (f29 (f30 f31 f4) ?v0) f5) ?v1) f5)))
(assert (forall ((?v0 S7) (?v1 S7)) (= (f9 (f48 (f49 (f50 f51 f10) ?v0) f11) ?v1) f11)))
(assert (forall ((?v0 S5) (?v1 S2) (?v2 S15)) (not (= (f16 (f17 (f18 f19 ?v0) ?v1) (f22 f23 ?v2)) f7))))
(assert (forall ((?v0 S3) (?v1 S2) (?v2 S21)) (not (= (f28 (f29 (f30 f31 ?v0) ?v1) (f33 f34 ?v2)) f4))))
(assert (forall ((?v0 S8) (?v1 S7) (?v2 S31)) (not (= (f48 (f49 (f50 f51 ?v0) ?v1) (f52 f53 ?v2)) f10))))
(assert (forall ((?v0 S10) (?v1 S16) (?v2 S8) (?v3 S3) (?v4 S2) (?v5 S16) (?v6 S8) (?v7 S3) (?v8 S15)) (let ((?v_0 (f76 ?v0)) (?v_1 (f62 f63 ?v2)) (?v_3 (f62 f63 ?v6)) (?v_2 (f37 (f38 f39 ?v4) ?v8))) (=> (= (f72 (f73 (f74 (f75 ?v_0 ?v1) (f61 ?v_1 (f28 (f29 (f30 f31 ?v3) ?v4) f5))) ?v5) (f61 ?v_3 ?v7)) f1) (=> (= (f3 ?v7 ?v4) f5) (=> (not (= (f77 ?v4 ?v1) f1)) (= (f72 (f73 (f74 (f75 ?v_0 (f36 ?v_2 ?v1)) (f61 ?v_1 ?v3)) (f36 ?v_2 ?v5)) (f61 ?v_3 (f28 (f29 (f30 f31 ?v7) ?v4) (f3 ?v3 ?v4)))) f1)))))))
(assert (forall ((?v0 S16) (?v1 S8) (?v2 S3) (?v3 S2) (?v4 S16) (?v5 S8) (?v6 S3) (?v7 S10) (?v8 S15)) (let ((?v_0 (f62 f63 ?v1)) (?v_2 (f62 f63 ?v5)) (?v_3 (f65 ?v7)) (?v_1 (f37 (f38 f39 ?v3) ?v8))) (=> (= (f54 (f55 (f56 f57 (f58 (f59 f60 ?v0) (f61 ?v_0 (f28 (f29 (f30 f31 ?v2) ?v3) f5)))) (f58 (f59 f60 ?v4) (f61 ?v_2 ?v6))) ?v_3) f1) (=> (= (f3 ?v6 ?v3) f5) (=> (not (= (f77 ?v3 ?v0) f1)) (= (f54 (f55 (f56 f57 (f58 (f59 f60 (f36 ?v_1 ?v0)) (f61 ?v_0 ?v2))) (f58 (f59 f60 (f36 ?v_1 ?v4)) (f61 ?v_2 (f28 (f29 (f30 f31 ?v6) ?v3) (f3 ?v2 ?v3))))) ?v_3) f1)))))))
(assert (forall ((?v0 S6)) (=> (=> (= ?v0 f8) false) (=> (forall ((?v1 S15)) (=> (= ?v0 (f22 f23 ?v1)) false)) false))))
(assert (forall ((?v0 S4)) (=> (=> (= ?v0 f5) false) (=> (forall ((?v1 S21)) (=> (= ?v0 (f33 f34 ?v1)) false)) false))))
(assert (forall ((?v0 S9)) (=> (=> (= ?v0 f11) false) (=> (forall ((?v1 S31)) (=> (= ?v0 (f52 f53 ?v1)) false)) false))))
(assert (forall ((?v0 S16) (?v1 S39) (?v2 S21) (?v3 S8) (?v4 S3) (?v5 S10) (?v6 S2)) (let ((?v_0 (f62 f63 ?v3)) (?v_1 (f83 (f65 ?v5)))) (=> (= (f54 (f55 (f56 f57 (f58 (f59 f60 ?v0) ?v1)) (f58 (f59 f60 (f44 f45 ?v2)) (f61 ?v_0 ?v4))) ?v_1) f1) (= (f54 (f55 (f56 f57 (f58 (f59 f60 (f36 (f42 f43 ?v6) ?v0)) ?v1)) (f58 (f59 f60 (f44 f45 f80)) (f61 ?v_0 (f28 (f29 (f30 f31 ?v4) ?v6) (f33 f34 ?v2))))) ?v_1) f1)))))
(assert (forall ((?v0 S16) (?v1 S8) (?v2 S3) (?v3 S16) (?v4 S8) (?v5 S3) (?v6 S10)) (=> (= (f54 (f55 (f56 f57 (f58 (f59 f60 ?v0) (f61 (f62 f63 ?v1) ?v2))) (f58 (f59 f60 ?v3) (f61 (f62 f63 ?v4) ?v5))) (f65 ?v6)) f1) (= (f84 ?v1 ?v4) f1))))
(assert (forall ((?v0 S16) (?v1 S8) (?v2 S3) (?v3 S2) (?v4 S21) (?v5 S16) (?v6 S8) (?v7 S3) (?v8 S10) (?v9 S15)) (let ((?v_0 (f62 f63 ?v1)) (?v_3 (f62 f63 ?v6)) (?v_4 (f83 (f65 ?v8))) (?v_1 (f37 (f38 f39 ?v3) ?v9)) (?v_2 (f42 f43 ?v3))) (=> (= (f54 (f55 (f56 f57 (f58 (f59 f60 ?v0) (f61 ?v_0 (f28 (f29 (f30 f31 ?v2) ?v3) (f33 f34 ?v4))))) (f58 (f59 f60 ?v5) (f61 ?v_3 ?v7))) ?v_4) f1) (= (f54 (f55 (f56 f57 (f58 (f59 f60 (f36 ?v_1 (f36 (f40 f41 (f36 ?v_2 (f44 f45 ?v4))) ?v0))) (f61 ?v_0 ?v2))) (f58 (f59 f60 (f36 ?v_1 (f36 (f40 f41 (f36 ?v_2 (f44 f45 (f85 f86 (f3 ?v7 ?v3))))) ?v5))) (f61 ?v_3 (f28 (f29 (f30 f31 ?v7) ?v3) (f3 ?v2 ?v3))))) ?v_4) f1)))))
(assert (forall ((?v0 S16) (?v1 S8) (?v2 S3) (?v3 S2) (?v4 S21) (?v5 S16) (?v6 S8) (?v7 S3) (?v8 S10) (?v9 S15)) (let ((?v_0 (f62 f63 ?v1)) (?v_1 (f59 f60 ?v5)) (?v_2 (f62 f63 ?v6)) (?v_3 (f83 (f65 ?v8)))) (=> (= (f54 (f55 (f56 f57 (f58 (f59 f60 ?v0) (f61 ?v_0 (f28 (f29 (f30 f31 ?v2) ?v3) (f33 f34 ?v4))))) (f58 ?v_1 (f61 ?v_2 ?v7))) ?v_3) f1) (=> (= (f87 ?v5) f1) (= (f54 (f55 (f56 f57 (f58 (f59 f60 (f36 (f37 (f38 f39 ?v3) ?v9) (f36 (f40 f41 (f36 (f42 f43 ?v3) (f44 f45 ?v4))) ?v0))) (f61 ?v_0 ?v2))) (f58 ?v_1 (f61 ?v_2 (f28 (f29 (f30 f31 ?v7) ?v3) (f3 ?v2 ?v3))))) ?v_3) f1))))))
(assert (forall ((?v0 S33)) (=> (forall ((?v1 S36) (?v2 S16) (?v3 S8) (?v4 S3)) (=> (= ?v0 (f55 (f56 f57 ?v1) (f58 (f59 f60 ?v2) (f61 (f62 f63 ?v3) ?v4)))) false)) false)))
(assert (forall ((?v0 S8) (?v1 S7) (?v2 S2) (?v3 S52) (?v4 S10) (?v5 S52) (?v6 S21) (?v7 S15)) (let ((?v_0 (f89 f90 ?v2))) (=> (= (f9 ?v0 ?v1) (f52 f53 (f88 ?v_0 ?v3))) (= (= (f69 ?v4 (f48 (f49 (f50 f51 ?v0) ?v1) (f52 f53 (f88 ?v_0 ?v5))) ?v6 ?v7) f1) (= (f69 ?v4 ?v0 ?v6 ?v7) f1))))))
(assert (forall ((?v0 S10) (?v1 S8) (?v2 S5) (?v3 S16) (?v4 S15) (?v5 S8)) (=> (= (f25 ?v0 ?v1 ?v2 ?v3 ?v4) f1) (=> (= (f84 ?v1 ?v5) f1) (= (f25 ?v0 ?v5 ?v2 ?v3 ?v4) f1)))))
(assert (forall ((?v0 S8) (?v1 S8) (?v2 S10) (?v3 S21) (?v4 S15)) (=> (= (f84 ?v0 ?v1) f1) (=> (= (f69 ?v2 ?v0 ?v3 ?v4) f1) (= (f69 ?v2 ?v1 ?v3 ?v4) f1)))))
(assert (forall ((?v0 S10) (?v1 S8) (?v2 S3) (?v3 S5) (?v4 S8)) (=> (= (f12 ?v0 ?v1 ?v2 ?v3) f1) (=> (= (f84 ?v1 ?v4) f1) (= (f12 ?v0 ?v4 ?v2 ?v3) f1)))))
(assert (forall ((?v0 S15)) (= (f91 f92 (f22 f23 ?v0)) ?v0)))
(assert (forall ((?v0 S31)) (= (f93 f94 (f52 f53 ?v0)) ?v0)))
(assert (forall ((?v0 S21)) (= (f85 f86 (f33 f34 ?v0)) ?v0)))
(assert (forall ((?v0 S16) (?v1 S39) (?v2 S16) (?v3 S39) (?v4 S10) (?v5 S16)) (let ((?v_0 (f83 (f65 ?v4)))) (=> (= (f54 (f55 (f56 f57 (f58 (f59 f60 ?v0) ?v1)) (f58 (f59 f60 ?v2) ?v3)) ?v_0) f1) (= (f54 (f55 (f56 f57 (f58 (f59 f60 (f36 (f40 f41 ?v0) ?v5)) ?v1)) (f58 (f59 f60 (f36 (f40 f41 ?v2) ?v5)) ?v3)) ?v_0) f1)))))
(assert (forall ((?v0 S16) (?v1 S39) (?v2 S16) (?v3 S39) (?v4 S10) (?v5 S2)) (let ((?v_1 (f83 (f65 ?v4))) (?v_0 (f42 f43 ?v5))) (=> (= (f54 (f55 (f56 f57 (f58 (f59 f60 ?v0) ?v1)) (f58 (f59 f60 ?v2) ?v3)) ?v_1) f1) (= (f54 (f55 (f56 f57 (f58 (f59 f60 (f36 ?v_0 ?v0)) ?v1)) (f58 (f59 f60 (f36 ?v_0 ?v2)) ?v3)) ?v_1) f1)))))
(assert (forall ((?v0 S34)) (= (forall ((?v1 S33)) (= (f82 ?v0 ?v1) f1)) (forall ((?v1 S36) (?v2 S36)) (= (f82 ?v0 (f55 (f56 f57 ?v1) ?v2)) f1)))))
(assert (forall ((?v0 S57)) (= (forall ((?v1 S36)) (= (f95 ?v0 ?v1) f1)) (forall ((?v1 S16) (?v2 S39)) (= (f95 ?v0 (f58 (f59 f60 ?v1) ?v2)) f1)))))
(assert (forall ((?v0 S46)) (= (forall ((?v1 S39)) (= (f72 ?v0 ?v1) f1)) (forall ((?v1 S8) (?v2 S3)) (= (f72 ?v0 (f61 (f62 f63 ?v1) ?v2)) f1)))))
(assert (forall ((?v0 S58)) (= (forall ((?v1 S31)) (= (f96 ?v0 ?v1) f1)) (forall ((?v1 S2) (?v2 S52)) (= (f96 ?v0 (f88 (f89 f90 ?v1) ?v2)) f1)))))
(assert (forall ((?v0 S36) (?v1 S36) (?v2 S36) (?v3 S36)) (= (= (f55 (f56 f57 ?v0) ?v1) (f55 (f56 f57 ?v2) ?v3)) (and (= ?v0 ?v2) (= ?v1 ?v3)))))
(assert (forall ((?v0 S16) (?v1 S39) (?v2 S16) (?v3 S39)) (= (= (f58 (f59 f60 ?v0) ?v1) (f58 (f59 f60 ?v2) ?v3)) (and (= ?v0 ?v2) (= ?v1 ?v3)))))
(assert (forall ((?v0 S8) (?v1 S3) (?v2 S8) (?v3 S3)) (= (= (f61 (f62 f63 ?v0) ?v1) (f61 (f62 f63 ?v2) ?v3)) (and (= ?v0 ?v2) (= ?v1 ?v3)))))
(assert (forall ((?v0 S2) (?v1 S52) (?v2 S2) (?v3 S52)) (= (= (f88 (f89 f90 ?v0) ?v1) (f88 (f89 f90 ?v2) ?v3)) (and (= ?v0 ?v2) (= ?v1 ?v3)))))
(assert (forall ((?v0 S36) (?v1 S36) (?v2 S36) (?v3 S36)) (=> (= (f55 (f56 f57 ?v0) ?v1) (f55 (f56 f57 ?v2) ?v3)) (=> (=> (= ?v0 ?v2) (=> (= ?v1 ?v3) false)) false))))
(assert (forall ((?v0 S16) (?v1 S39) (?v2 S16) (?v3 S39)) (=> (= (f58 (f59 f60 ?v0) ?v1) (f58 (f59 f60 ?v2) ?v3)) (=> (=> (= ?v0 ?v2) (=> (= ?v1 ?v3) false)) false))))
(assert (forall ((?v0 S8) (?v1 S3) (?v2 S8) (?v3 S3)) (=> (= (f61 (f62 f63 ?v0) ?v1) (f61 (f62 f63 ?v2) ?v3)) (=> (=> (= ?v0 ?v2) (=> (= ?v1 ?v3) false)) false))))
(assert (forall ((?v0 S2) (?v1 S52) (?v2 S2) (?v3 S52)) (=> (= (f88 (f89 f90 ?v0) ?v1) (f88 (f89 f90 ?v2) ?v3)) (=> (=> (= ?v0 ?v2) (=> (= ?v1 ?v3) false)) false))))
(assert (forall ((?v0 S16) (?v1 S39) (?v2 S16) (?v3 S8) (?v4 S3) (?v5 S10) (?v6 S8) (?v7 S3) (?v8 S2) (?v9 S15)) (let ((?v_1 (f59 f60 ?v2)) (?v_2 (f62 f63 ?v3)) (?v_3 (f83 (f65 ?v5))) (?v_0 (f62 f63 ?v6))) (=> (= (f54 (f55 (f56 f57 (f58 (f59 f60 ?v0) ?v1)) (f58 ?v_1 (f61 ?v_2 ?v4))) ?v_3) f1) (=> (= (f87 ?v2) f1) (=> (= ?v1 (f61 ?v_0 (f28 (f29 (f30 f31 ?v7) ?v8) f5))) (= (f54 (f55 (f56 f57 (f58 (f59 f60 (f36 (f37 (f38 f39 ?v8) ?v9) ?v0)) (f61 ?v_0 ?v7))) (f58 ?v_1 (f61 ?v_2 (f28 (f29 (f30 f31 ?v4) ?v8) (f3 ?v7 ?v8))))) ?v_3) f1)))))))
(assert (forall ((?v0 S16) (?v1 S39) (?v2 S21) (?v3 S39) (?v4 S10) (?v5 S16) (?v6 S16) (?v7 S39)) (let ((?v_0 (f83 (f65 ?v4))) (?v_1 (f58 (f59 f60 ?v6) ?v7))) (=> (= (f54 (f55 (f56 f57 (f58 (f59 f60 ?v0) ?v1)) (f58 (f59 f60 (f44 f45 ?v2)) ?v3)) ?v_0) f1) (=> (= (f54 (f55 (f56 f57 (f58 (f59 f60 ?v5) ?v3)) ?v_1) ?v_0) f1) (= (f54 (f55 (f56 f57 (f58 (f59 f60 (f36 (f40 f41 ?v0) ?v5)) ?v1)) ?v_1) ?v_0) f1))))))
(assert (forall ((?v0 S21) (?v1 S15) (?v2 S10) (?v3 S8)) (=> (= (f66 (f67 f68 f10) ?v0) (f22 f23 ?v1)) (= (f69 ?v2 ?v3 ?v0 ?v1) f1))))
(assert (forall ((?v0 S36) (?v1 S34)) (= (f54 (f55 (f56 f57 ?v0) ?v0) (f83 ?v1)) f1)))
(assert (forall ((?v0 S8) (?v1 S8) (?v2 S21) (?v3 S15)) (let ((?v_0 (f22 f23 ?v3))) (=> (= (f84 ?v0 ?v1) f1) (=> (= (f66 (f67 f68 ?v0) ?v2) ?v_0) (= (f66 (f67 f68 ?v1) ?v2) ?v_0))))))
(assert (forall ((?v0 S33) (?v1 S34)) (=> (= (f54 ?v0 ?v1) f1) (= (f54 ?v0 (f83 ?v1)) f1))))
(assert (forall ((?v0 S8)) (= (f84 ?v0 ?v0) f1)))
(assert (forall ((?v0 S34)) (let ((?v_0 (f83 ?v0))) (= (f83 ?v_0) ?v_0))))
(assert (forall ((?v0 S8) (?v1 S7) (?v2 S2) (?v3 S52) (?v4 S52)) (let ((?v_0 (f89 f90 ?v2))) (=> (= (f9 ?v0 ?v1) (f52 f53 (f88 ?v_0 ?v3))) (= (f84 ?v0 (f48 (f49 (f50 f51 ?v0) ?v1) (f52 f53 (f88 ?v_0 ?v4)))) f1)))))
(assert (forall ((?v0 S8) (?v1 S8) (?v2 S8)) (=> (= (f84 ?v0 ?v1) f1) (=> (= (f84 ?v1 ?v2) f1) (= (f84 ?v0 ?v2) f1)))))
(assert (forall ((?v0 S8) (?v1 S7) (?v2 S31)) (=> (= (f9 ?v0 ?v1) f11) (= (f84 ?v0 (f48 (f49 (f50 f51 ?v0) ?v1) (f52 f53 ?v2))) f1))))
(assert (forall ((?v0 S36) (?v1 S36) (?v2 S34) (?v3 S36)) (let ((?v_0 (f56 f57 ?v0)) (?v_1 (f83 ?v2))) (=> (= (f54 (f55 ?v_0 ?v1) ?v2) f1) (=> (= (f54 (f55 (f56 f57 ?v1) ?v3) ?v_1) f1) (= (f54 (f55 ?v_0 ?v3) ?v_1) f1))))))
(assert (forall ((?v0 S36) (?v1 S36) (?v2 S34) (?v3 S36)) (let ((?v_0 (f56 f57 ?v0)) (?v_1 (f83 ?v2))) (=> (= (f54 (f55 ?v_0 ?v1) ?v_1) f1) (=> (= (f54 (f55 (f56 f57 ?v1) ?v3) ?v2) f1) (= (f54 (f55 ?v_0 ?v3) ?v_1) f1))))))
(assert (forall ((?v0 S36) (?v1 S36) (?v2 S34) (?v3 S36)) (let ((?v_1 (f56 f57 ?v0)) (?v_0 (f83 ?v2))) (=> (= (f54 (f55 ?v_1 ?v1) ?v_0) f1) (=> (= (f54 (f55 (f56 f57 ?v1) ?v3) ?v_0) f1) (= (f54 (f55 ?v_1 ?v3) ?v_0) f1))))))
(assert (forall ((?v0 S21) (?v1 S15) (?v2 S8)) (let ((?v_0 (f22 f23 ?v1))) (=> (= (f66 (f67 f68 f10) ?v0) ?v_0) (= (f66 (f67 f68 ?v2) ?v0) ?v_0)))))
(assert (forall ((?v0 S8) (?v1 S8)) (= (= (f84 ?v0 ?v1) f1) (forall ((?v2 S7) (?v3 S2) (?v4 S52)) (=> (= (f9 ?v0 ?v2) (f52 f53 (f88 (f89 f90 ?v3) ?v4))) (exists ((?v5 S52)) (= (f9 ?v1 ?v2) (f52 f53 (f88 (f89 f90 ?v3) ?v5)))))))))
(assert (forall ((?v0 S8) (?v1 S8) (?v2 S7) (?v3 S2) (?v4 S52)) (=> (= (f84 ?v0 ?v1) f1) (=> (= (f9 ?v0 ?v2) (f52 f53 (f88 (f89 f90 ?v3) ?v4))) (exists ((?v5 S52)) (= (f9 ?v1 ?v2) (f52 f53 (f88 (f89 f90 ?v3) ?v5))))))))
(check-sat)
(exit)
